hp = 55;
num_links = 12;
num_packets = 5;

occupancy = 
[|    18,      32,      -1,      -1,      -1,   %0-1
 |    -1,      32,      -1,      -1,      -1,   %1-3
 |    -1,      -1,      19,      27,      -1,   %2-3
 |    -1,      -1,      -1,      -1,      23,   %2-0
 |    -1,      -1,      -1,      27,      -1,   %3-1
 |    -1,      -1,      -1,      -1,      23,   %3-2
 |    -1,      -1,      -1,      -1,      23,   %0-L
 |    18,      32,      -1,      -1,      -1,   %L-0
 |    18,      -1,      -1,      27,      -1,   %1-L
 |    -1,      -1,      19,      27,      -1,   %L-2
 |    -1,      32,      19,      -1,      -1,   %3-L
 |    -1,      -1,      -1,      -1,      23,   %L-3
|];

deadline = 
[|    55,      55,      -1,      -1,      -1,   %0-1
 |    -1,      55,      -1,      -1,      -1,   %1-3
 |    -1,      -1,      55,      55,      -1,   %2-3
 |    -1,      -1,      -1,      -1,      55,   %2-0
 |    -1,      -1,      -1,      55,      -1,   %3-1
 |    -1,      -1,      -1,      -1,      55,   %3-2
 |    -1,      -1,      -1,      -1,      55,   %0-L
 |    55,      55,      -1,      -1,      -1,   %L-0
 |    55,      -1,      -1,      55,      -1,   %1-L
 |    -1,      -1,      55,      55,      -1,   %L-2
 |    -1,      55,      55,      -1,      -1,   %3-L
 |    -1,      -1,      -1,      -1,      55,   %L-3
|];

min_start = 
[|     0,       0,      -1,      -1,      -1,   %0-1
 |    -1,       0,      -1,      -1,      -1,   %1-3
 |    -1,      -1,       0,       0,      -1,   %2-3
 |    -1,      -1,      -1,      -1,       0,   %2-0
 |    -1,      -1,      -1,       0,      -1,   %3-1
 |    -1,      -1,      -1,      -1,       0,   %3-2
 |    -1,      -1,      -1,      -1,       0,   %0-L
 |     0,       0,      -1,      -1,      -1,   %L-0
 |     0,      -1,      -1,       0,      -1,   %1-L
 |    -1,      -1,       0,       0,      -1,   %L-2
 |    -1,       0,       0,      -1,      -1,   %3-L
 |    -1,      -1,      -1,      -1,       0,   %L-3
|];
